p cnf 228 398               
-16 59 0
-11 54 0
-1 49 0
-6 49 0
1 6 -49 0
-49 54 0
11 49 -54 0
-54 59 0
16 54 -59 0
59 87 0
-17 60 0
-12 55 0
-2 50 0
-7 50 0
2 7 -50 0
-50 55 0
12 50 -55 0
-55 60 0
17 55 -60 0
60 64 0
59 64 0
-60 -59 -64 0
64 -72 0
-59 65 0
-60 65 0
59 60 -65 0
65 66 0
-18 61 0
-13 56 0
-3 51 0
-8 51 0
3 8 -51 0
-51 56 0
13 51 -56 0
-56 61 0
18 56 -61 0
61 66 0
-65 -61 -66 0
66 -72 0
-61 67 0
-65 67 0
61 65 -67 0
67 68 0
-19 62 0
-14 57 0
-4 52 0
-9 52 0
4 9 -52 0
-52 57 0
14 52 -57 0
-57 62 0
19 57 -62 0
62 68 0
-67 -62 -68 0
68 -72 0
-62 69 0
-67 69 0
62 67 -69 0
69 70 0
-20 63 0
-15 58 0
-5 53 0
-10 53 0
5 10 -53 0
-53 58 0
15 53 -58 0
-58 63 0
20 58 -63 0
63 70 0
-69 -63 -70 0
70 -72 0
-63 71 0
-69 71 0
63 69 -71 0
71 -72 0
-64 -66 -68 -70 -71 72 0
-72 -59 82 0
72 -21 82 0
-59 -21 82 0
-82 87 0
60 88 0
-72 -60 83 0
72 -22 83 0
-60 -22 83 0
-83 88 0
61 89 0
-72 -61 84 0
72 -23 84 0
-61 -23 84 0
-84 89 0
62 90 0
-72 -62 85 0
72 -24 85 0
-62 -24 85 0
-85 90 0
63 91 0
-72 -63 86 0
72 -25 86 0
-63 -25 86 0
-86 91 0
-87 -88 -89 -90 -91 92 0
-92 -93 0
-10 33 0
-9 32 0
-8 31 0
-6 30 0
-7 30 0
6 7 -30 0
-30 31 0
8 30 -31 0
-31 32 0
9 31 -32 0
-32 33 0
10 32 -33 0
-5 29 0
-4 28 0
-3 27 0
-1 26 0
-2 26 0
1 2 -26 0
-26 27 0
3 26 -27 0
-27 28 0
4 27 -28 0
-28 29 0
5 28 -29 0
-33 -29 -42 0
42 -48 0
-29 43 0
-33 43 0
29 33 -43 0
-15 37 0
-14 36 0
-13 35 0
-11 34 0
-12 34 0
11 12 -34 0
-34 35 0
13 34 -35 0
-35 36 0
14 35 -36 0
-36 37 0
15 36 -37 0
-43 -37 -44 0
44 -48 0
-37 45 0
-43 45 0
37 43 -45 0
-20 41 0
-19 40 0
-18 39 0
-16 38 0
-17 38 0
16 17 -38 0
-38 39 0
18 38 -39 0
-39 40 0
19 39 -40 0
-40 41 0
20 40 -41 0
-45 -41 -46 0
46 -48 0
41 45 -47 0
47 -48 0
48 -93 0
72 -93 0
-22 -21 -73 0
73 -81 0
-21 74 0
-22 74 0
21 22 -74 0
-74 -23 -75 0
75 -81 0
-23 76 0
-74 76 0
23 74 -76 0
-76 -24 -77 0
77 -81 0
-24 78 0
-76 78 0
24 76 -78 0
-78 -25 -79 0
79 -81 0
25 78 -80 0
80 -81 0
81 -93 0
-1 6 -94 0
94 -112 0
-1 -6 95 0
1 6 95 0
-6 6 95 0
-2 7 -96 0
-95 96 -97 0
97 -112 0
-2 -7 98 0
2 7 98 0
-7 7 98 0
-95 -98 99 0
-3 8 -100 0
-99 100 -101 0
101 -112 0
-3 -8 102 0
3 8 102 0
-8 8 102 0
-99 -102 103 0
-4 9 -104 0
-103 104 -105 0
105 -112 0
-4 -9 106 0
4 9 106 0
-9 9 106 0
-103 -106 107 0
-5 10 -108 0
-107 108 -109 0
109 -112 0
112 -227 0
-6 11 -113 0
113 -131 0
-6 -11 114 0
6 11 114 0
-11 11 114 0
-7 12 -115 0
-114 115 -116 0
116 -131 0
-7 -12 117 0
7 12 117 0
-12 12 117 0
-114 -117 118 0
-8 13 -119 0
-118 119 -120 0
120 -131 0
-8 -13 121 0
8 13 121 0
-13 13 121 0
-118 -121 122 0
-9 14 -123 0
-122 123 -124 0
124 -131 0
-9 -14 125 0
9 14 125 0
-14 14 125 0
-122 -125 126 0
-10 15 -127 0
-126 127 -128 0
128 -131 0
131 -227 0
-11 16 -132 0
132 -150 0
-11 -16 133 0
11 16 133 0
-16 16 133 0
-12 17 -134 0
-133 134 -135 0
135 -150 0
-12 -17 136 0
12 17 136 0
-17 17 136 0
-133 -136 137 0
-13 18 -138 0
-137 138 -139 0
139 -150 0
-13 -18 140 0
13 18 140 0
-18 18 140 0
-137 -140 141 0
-14 19 -142 0
-141 142 -143 0
143 -150 0
-14 -19 144 0
14 19 144 0
-19 19 144 0
-141 -144 145 0
-15 20 -146 0
-145 146 -147 0
147 -150 0
150 -227 0
-21 22 -151 0
151 -169 0
-21 -22 152 0
21 22 152 0
-22 22 152 0
-1 2 -153 0
-152 153 -154 0
154 -169 0
-1 -2 155 0
1 2 155 0
-2 2 155 0
-152 -155 156 0
-6 7 -157 0
-156 157 -158 0
158 -169 0
-6 -7 159 0
6 7 159 0
-7 7 159 0
-156 -159 160 0
-11 12 -161 0
-160 161 -162 0
162 -169 0
-11 -12 163 0
11 12 163 0
-12 12 163 0
-160 -163 164 0
-16 17 -165 0
-164 165 -166 0
166 -169 0
169 -227 0
-22 23 -170 0
170 -188 0
-22 -23 171 0
22 23 171 0
-23 23 171 0
-2 3 -172 0
-171 172 -173 0
173 -188 0
-2 -3 174 0
2 3 174 0
-3 3 174 0
-171 -174 175 0
-7 8 -176 0
-175 176 -177 0
177 -188 0
-7 -8 178 0
7 8 178 0
-8 8 178 0
-175 -178 179 0
-12 13 -180 0
-179 180 -181 0
181 -188 0
-12 -13 182 0
12 13 182 0
-13 13 182 0
-179 -182 183 0
-17 18 -184 0
-183 184 -185 0
185 -188 0
188 -227 0
-23 24 -189 0
189 -207 0
-23 -24 190 0
23 24 190 0
-24 24 190 0
-3 4 -191 0
-190 191 -192 0
192 -207 0
-3 -4 193 0
3 4 193 0
-4 4 193 0
-190 -193 194 0
-8 9 -195 0
-194 195 -196 0
196 -207 0
-8 -9 197 0
8 9 197 0
-9 9 197 0
-194 -197 198 0
-13 14 -199 0
-198 199 -200 0
200 -207 0
-13 -14 201 0
13 14 201 0
-14 14 201 0
-198 -201 202 0
-18 19 -203 0
-202 203 -204 0
204 -207 0
207 -227 0
-24 25 -208 0
208 -226 0
-24 -25 209 0
24 25 209 0
-25 25 209 0
-4 5 -210 0
-209 210 -211 0
211 -226 0
-4 -5 212 0
4 5 212 0
-5 5 212 0
-209 -212 213 0
-9 10 -214 0
-213 214 -215 0
215 -226 0
-9 -10 216 0
9 10 216 0
-10 10 216 0
-213 -216 217 0
-14 15 -218 0
-217 218 -219 0
219 -226 0
-14 -15 220 0
14 15 220 0
-15 15 220 0
-217 -220 221 0
-19 20 -222 0
-221 222 -223 0
223 -226 0
226 -227 0
93 0
227 0
